 Code  2031
 Dimension, Fixed Cost
   100        3000
 Facility, Client, Transportation Cost
     1        8           1
     1       28           2
     1       32           0
     1       44           4
     1       46           0
     1       48           0
     1       60           4
     1       63           0
     1       79           4
     1       99           4
     2        4           2
     2        9           1
     2       12           0
     2       26           3
     2       35           3
     2       43           2
     2       45           3
     2       52           3
     2       91           3
     2       95           4
     3        3           4
     3       15           4
     3       19           1
     3       22           3
     3       31           3
     3       34           4
     3       39           2
     3       48           4
     3       84           0
     3       96           2
     4        7           4
     4       20           2
     4       29           3
     4       32           3
     4       42           1
     4       69           0
     4       71           3
     4       73           2
     4       93           2
     4       97           2
     5        1           2
     5        6           0
     5       45           2
     5       55           3
     5       56           0
     5       71           0
     5       84           3
     5       92           0
     5       93           4
     5       97           3
     6        3           1
     6       10           3
     6       21           1
     6       22           3
     6       31           0
     6       47           1
     6       54           3
     6       57           1
     6       70           2
     6       73           0
     7       24           2
     7       35           0
     7       40           3
     7       49           4
     7       51           0
     7       59           4
     7       68           3
     7       83           0
     7       85           4
     7       86           4
     8        5           1
     8        7           1
     8       12           3
     8       19           3
     8       29           4
     8       31           1
     8       36           1
     8       42           1
     8       46           4
     8       58           4
     9       11           0
     9       24           4
     9       27           0
     9       37           2
     9       42           3
     9       53           1
     9       70           3
     9       84           3
     9       89           2
     9      100           4
    10        1           1
    10       11           0
    10       31           0
    10       35           2
    10       50           4
    10       71           3
    10       78           1
    10       79           4
    10       93           4
    10       94           2
    11        8           0
    11        9           2
    11       10           2
    11       15           3
    11       19           0
    11       26           1
    11       27           3
    11       73           2
    11       82           1
    11       99           1
    12        1           0
    12       36           1
    12       37           3
    12       46           1
    12       51           2
    12       65           3
    12       67           4
    12       75           3
    12       83           3
    12       89           2
    13        1           4
    13        8           3
    13       10           4
    13       11           3
    13       42           2
    13       49           2
    13       64           0
    13       81           4
    13       96           0
    13       97           3
    14        5           3
    14       11           3
    14       27           2
    14       28           3
    14       35           1
    14       57           4
    14       83           1
    14       86           2
    14       91           2
    14       97           1
    15        8           3
    15       10           4
    15       12           4
    15       39           1
    15       40           1
    15       52           1
    15       59           4
    15       75           3
    15       91           2
    15       93           4
    16        1           4
    16        6           3
    16       19           0
    16       23           0
    16       31           4
    16       35           4
    16       45           4
    16       47           4
    16       71           2
    16       91           1
    17        4           2
    17       12           1
    17       17           4
    17       27           4
    17       34           2
    17       37           2
    17       50           2
    17       68           0
    17       73           3
    17       92           2
    18        1           3
    18        4           3
    18       28           4
    18       40           4
    18       44           0
    18       49           3
    18       69           1
    18       73           0
    18       85           0
    18       98           3
    19        4           0
    19        8           0
    19       11           2
    19       23           4
    19       28           2
    19       46           0
    19       59           3
    19       73           0
    19       93           2
    19       98           2
    20        4           3
    20       21           1
    20       39           2
    20       44           4
    20       57           1
    20       66           1
    20       71           3
    20       73           1
    20       93           0
    20       98           2
    21        2           2
    21        7           3
    21       28           2
    21       36           4
    21       52           1
    21       68           4
    21       77           1
    21       85           0
    21       90           4
    21       98           1
    22        9           1
    22       17           3
    22       19           0
    22       44           1
    22       48           1
    22       75           0
    22       76           0
    22       78           3
    22       90           1
    22       95           3
    23        4           0
    23       36           4
    23       41           1
    23       45           4
    23       53           1
    23       55           0
    23       66           0
    23       82           1
    23       86           2
    23       91           4
    24       16           3
    24       19           3
    24       40           1
    24       42           4
    24       52           3
    24       63           2
    24       69           1
    24       80           2
    24       86           3
    24       96           3
    25       20           3
    25       29           2
    25       31           2
    25       39           4
    25       51           0
    25       73           2
    25       80           1
    25       84           2
    25       95           4
    25       97           2
    26        2           0
    26       10           4
    26       18           1
    26       29           0
    26       31           3
    26       44           2
    26       50           2
    26       71           4
    26       80           2
    26       87           0
    27        6           2
    27       12           3
    27       38           2
    27       42           1
    27       46           1
    27       47           0
    27       55           1
    27       57           1
    27       78           2
    27       88           4
    28       24           0
    28       30           0
    28       33           0
    28       45           4
    28       49           3
    28       68           3
    28       73           3
    28       75           0
    28       76           2
    28       94           1
    29        6           1
    29        7           2
    29       14           3
    29       17           3
    29       22           3
    29       28           0
    29       43           0
    29       64           3
    29       73           1
    29       75           1
    30       15           4
    30       41           3
    30       55           2
    30       60           4
    30       70           4
    30       75           2
    30       78           3
    30       87           3
    30       98           3
    30      100           4
    31        2           0
    31       24           1
    31       28           3
    31       41           4
    31       44           2
    31       51           3
    31       55           3
    31       63           1
    31       91           0
    31       95           1
    32        1           4
    32       10           2
    32       23           3
    32       30           0
    32       62           0
    32       64           0
    32       73           1
    32       81           1
    32       91           1
    32       92           1
    33       11           4
    33       16           4
    33       17           4
    33       18           4
    33       38           2
    33       41           0
    33       47           3
    33       60           3
    33       66           0
    33       75           0
    34       14           1
    34       21           1
    34       27           1
    34       36           3
    34       58           1
    34       69           0
    34       73           2
    34       77           1
    34       84           2
    34       88           3
    35       21           4
    35       24           2
    35       32           2
    35       37           4
    35       46           0
    35       63           2
    35       64           3
    35       68           3
    35       87           3
    35       91           4
    36        4           2
    36       19           4
    36       44           0
    36       47           3
    36       49           2
    36       50           4
    36       59           0
    36       79           0
    36       88           4
    36       97           4
    37       13           2
    37       22           4
    37       39           0
    37       45           2
    37       53           2
    37       66           2
    37       83           0
    37       85           0
    37       90           2
    37       92           3
    38       10           4
    38       29           1
    38       38           1
    38       56           1
    38       57           2
    38       59           1
    38       69           1
    38       70           1
    38       81           4
    38       87           4
    39        8           0
    39       12           4
    39       20           3
    39       42           0
    39       55           0
    39       63           2
    39       71           0
    39       83           2
    39       87           4
    39       96           1
    40        2           3
    40       26           1
    40       31           0
    40       32           3
    40       52           1
    40       53           2
    40       69           0
    40       73           4
    40       83           4
    40       94           4
    41       32           0
    41       39           0
    41       63           2
    41       67           4
    41       71           3
    41       76           0
    41       77           1
    41       87           0
    41       90           0
    41       97           4
    42       14           4
    42       26           3
    42       39           1
    42       51           0
    42       56           0
    42       69           4
    42       71           4
    42       74           0
    42       89           0
    42       92           3
    43        6           0
    43       14           3
    43       27           2
    43       36           0
    43       42           4
    43       64           2
    43       66           1
    43       69           0
    43       98           3
    43       99           3
    44       16           1
    44       21           2
    44       39           4
    44       49           1
    44       61           0
    44       62           2
    44       72           0
    44       81           0
    44       92           3
    44       98           4
    45        2           1
    45       11           2
    45       15           1
    45       24           0
    45       35           1
    45       50           0
    45       59           0
    45       70           2
    45       71           1
    45       80           4
    46        3           3
    46        8           4
    46        9           3
    46       26           0
    46       43           4
    46       53           4
    46       55           3
    46       80           2
    46       86           0
    46       89           1
    47        9           2
    47       20           4
    47       34           3
    47       41           2
    47       57           0
    47       66           2
    47       70           4
    47       73           3
    47       80           1
    47       99           2
    48        3           2
    48       14           2
    48       22           0
    48       29           4
    48       38           0
    48       49           3
    48       60           3
    48       63           1
    48       72           3
    48       95           4
    49        2           0
    49        3           0
    49       11           3
    49       18           0
    49       25           1
    49       29           0
    49       36           1
    49       45           3
    49       68           2
    49       94           1
    50       12           3
    50       18           3
    50       20           1
    50       22           1
    50       27           0
    50       34           4
    50       52           4
    50       63           1
    50       64           3
    50       84           1
    51        8           4
    51        9           1
    51       15           0
    51       36           2
    51       38           4
    51       40           0
    51       64           2
    51       68           2
    51       69           4
    51       97           0
    52        6           1
    52       15           1
    52       22           2
    52       29           4
    52       66           1
    52       86           0
    52       87           3
    52       93           3
    52       96           1
    52       97           3
    53       18           4
    53       19           3
    53       55           4
    53       64           4
    53       77           4
    53       82           3
    53       86           4
    53       91           3
    53       93           2
    53       94           2
    54        4           2
    54        6           2
    54       12           0
    54       16           1
    54       26           4
    54       34           4
    54       45           1
    54       54           0
    54       74           0
    54       85           0
    55       18           0
    55       36           3
    55       37           0
    55       47           3
    55       55           3
    55       70           0
    55       71           4
    55       78           3
    55       91           1
    55       92           1
    56        1           2
    56        9           2
    56       37           0
    56       38           4
    56       39           2
    56       59           0
    56       62           2
    56       73           1
    56       75           0
    56       91           2
    57        5           2
    57        7           1
    57       24           0
    57       41           4
    57       44           4
    57       64           1
    57       65           1
    57       73           2
    57       93           0
    57       97           3
    58        2           0
    58       13           0
    58       16           4
    58       17           1
    58       26           3
    58       44           2
    58       56           4
    58       61           1
    58       68           0
    58       93           1
    59       21           3
    59       50           1
    59       51           2
    59       52           0
    59       56           0
    59       63           1
    59       67           3
    59       75           3
    59       80           4
    59       87           4
    60        2           4
    60        3           4
    60        9           1
    60       12           1
    60       13           3
    60       17           1
    60       31           1
    60       41           4
    60       74           3
    60       97           1
    61        2           4
    61        9           4
    61       46           4
    61       58           0
    61       61           1
    61       62           0
    61       65           1
    61       69           0
    61       76           4
    61       88           2
    62        1           0
    62       18           1
    62       21           1
    62       32           1
    62       45           1
    62       56           0
    62       60           1
    62       63           0
    62       72           3
    62       93           1
    63        6           3
    63       12           3
    63       16           1
    63       33           3
    63       41           3
    63       47           0
    63       56           3
    63       58           1
    63       76           4
    63       93           3
    64        2           0
    64       16           3
    64       20           0
    64       42           2
    64       52           0
    64       57           3
    64       62           0
    64       68           1
    64       85           3
    64      100           1
    65        2           2
    65       14           2
    65       26           0
    65       30           4
    65       41           4
    65       50           3
    65       63           4
    65       69           3
    65       96           3
    65      100           1
    66       13           1
    66       24           3
    66       37           3
    66       40           2
    66       41           4
    66       46           4
    66       64           4
    66       73           1
    66       90           2
    66       96           4
    67        7           3
    67       14           1
    67       15           4
    67       28           1
    67       52           2
    67       55           3
    67       60           0
    67       70           1
    67       82           0
    67       87           4
    68        8           1
    68       29           2
    68       31           3
    68       56           2
    68       60           4
    68       70           2
    68       73           0
    68       79           2
    68       81           2
    68      100           3
    69       15           0
    69       20           2
    69       23           3
    69       25           1
    69       32           2
    69       45           4
    69       56           3
    69       65           2
    69       71           2
    69       77           1
    70        1           0
    70        4           2
    70       17           3
    70       29           1
    70       35           3
    70       47           1
    70       51           3
    70       77           0
    70       95           4
    70       96           1
    71       10           2
    71       12           1
    71       23           0
    71       30           4
    71       32           4
    71       47           0
    71       87           4
    71       97           0
    71       98           0
    71       99           4
    72        6           1
    72       13           0
    72       14           1
    72       34           3
    72       38           2
    72       47           1
    72       68           1
    72       87           3
    72       89           0
    72      100           2
    73        8           1
    73       11           4
    73       17           2
    73       34           1
    73       36           4
    73       47           1
    73       70           2
    73       73           1
    73       81           1
    73       99           3
    74        1           2
    74        6           1
    74        9           2
    74       26           3
    74       53           0
    74       70           2
    74       72           0
    74       85           4
    74       90           0
    74       92           0
    75        8           3
    75       12           4
    75       22           1
    75       31           4
    75       38           0
    75       51           1
    75       52           3
    75       62           1
    75       86           1
    75       90           0
    76        2           4
    76       10           3
    76       13           1
    76       15           1
    76       29           3
    76       35           3
    76       46           3
    76       74           3
    76       77           4
    76       97           0
    77        3           2
    77       33           4
    77       35           3
    77       59           0
    77       66           2
    77       71           1
    77       72           0
    77       88           2
    77       96           1
    77       98           2
    78        5           1
    78       11           2
    78       26           1
    78       52           1
    78       57           1
    78       59           3
    78       76           1
    78       88           3
    78       94           3
    78       95           0
    79       11           2
    79       20           0
    79       27           0
    79       41           1
    79       42           1
    79       56           0
    79       57           2
    79       63           2
    79       81           4
    79       82           2
    80       18           2
    80       23           4
    80       24           4
    80       50           1
    80       51           4
    80       64           0
    80       67           0
    80       73           1
    80       88           1
    80       91           4
    81        6           1
    81        9           0
    81       21           3
    81       22           2
    81       42           3
    81       44           2
    81       60           1
    81       81           4
    81       93           2
    81       97           4
    82        8           1
    82       26           1
    82       31           3
    82       43           0
    82       48           1
    82       49           1
    82       51           1
    82       71           4
    82       72           4
    82       90           4
    83        2           2
    83       14           1
    83       22           1
    83       41           4
    83       43           1
    83       67           2
    83       80           4
    83       81           0
    83       85           2
    83       99           0
    84        4           3
    84        8           4
    84       14           0
    84       16           1
    84       18           3
    84       34           0
    84       54           4
    84       62           3
    84       69           0
    84       72           4
    85        6           2
    85       12           2
    85       21           1
    85       31           4
    85       54           1
    85       60           4
    85       63           4
    85       67           2
    85       85           2
    85       92           4
    86       10           0
    86       22           3
    86       30           4
    86       37           0
    86       46           0
    86       52           3
    86       53           4
    86       55           2
    86       84           2
    86       96           4
    87       10           3
    87       15           4
    87       19           4
    87       31           1
    87       40           2
    87       41           4
    87       65           0
    87       69           0
    87       73           2
    87       74           2
    88        5           4
    88       12           1
    88       18           2
    88       20           2
    88       35           3
    88       40           3
    88       45           2
    88       93           2
    88       99           3
    88      100           2
    89        1           0
    89       12           3
    89       31           1
    89       49           2
    89       63           2
    89       71           3
    89       72           0
    89       81           4
    89       89           1
    89       94           2
    90        1           1
    90       14           4
    90       26           0
    90       32           2
    90       34           4
    90       36           3
    90       63           3
    90       72           2
    90       80           4
    90       93           4
    91       12           3
    91       21           3
    91       27           3
    91       66           1
    91       74           3
    91       77           1
    91       81           1
    91       82           0
    91       87           1
    91      100           1
    92       13           0
    92       22           2
    92       25           1
    92       35           2
    92       51           4
    92       61           3
    92       62           1
    92       69           3
    92       70           2
    92       98           0
    93       14           4
    93       18           2
    93       31           4
    93       43           2
    93       51           1
    93       52           2
    93       63           4
    93       91           3
    93       92           3
    93       93           0
    94        6           2
    94        7           4
    94       10           1
    94       31           1
    94       43           2
    94       65           3
    94       74           4
    94       90           2
    94       93           4
    94       97           0
    95        7           1
    95       14           0
    95       26           3
    95       50           3
    95       55           2
    95       66           4
    95       74           0
    95       85           3
    95       91           1
    95       96           0
    96       22           3
    96       57           0
    96       60           0
    96       62           3
    96       63           1
    96       64           2
    96       70           3
    96       80           4
    96       89           2
    96       91           4
    97        7           1
    97       10           0
    97       15           4
    97       26           1
    97       29           1
    97       37           0
    97       43           2
    97       45           0
    97       70           1
    97       75           1
    98        3           3
    98       12           3
    98       23           4
    98       31           3
    98       36           4
    98       42           2
    98       57           3
    98       80           3
    98       90           2
    98       99           1
    99        3           4
    99       12           3
    99       21           1
    99       63           0
    99       73           1
    99       74           4
    99       79           2
    99       81           1
    99       88           4
    99       92           4
   100        6           1
   100       12           4
   100       38           4
   100       50           2
   100       53           2
   100       57           0
   100       63           2
   100       67           0
   100       79           3
   100       94           1
